problems/csplib-prob056/sonet-models/noch/O2/lingeling/model_2_1-s3ring09-solution000001.eprime-solution
language ESSENCE' 1.0

letting network_ExplicitWithFlagsR6_Flags be [2, 2, 1, 1, 1, 0, 0; int(1..7)]
letting network_ExplicitWithFlagsR6_Values_ExplicitVarSizeWithDummy be
        [[1, 2, 8, 9, 11; int(1..5)], [1, 3, 4, 10, 12; int(1..5)], [2, 5, 6, 7, 12; int(1..5)],
         [3, 6, 8, 9, 13; int(1..5)], [11, 13, 14, 14, 14; int(1..5)], [1, 1, 1, 1, 1; int(1..5)],
         [1, 1, 1, 1, 1; int(1..5)]; int(1..7)]
